n_res = 4;
rc = [ 21, 14, 13, 20 ];
n_tasks = 30;
d = [ 5, 1, 7, 6, 8, 6, 10, 2, 7, 6, 2, 3, 8, 4, 1, 4, 2, 2, 10, 6, 10, 8, 2, 8, 9, 10, 7, 3, 6, 8 ];
rr = [| 0, 0, 0, 0, 0, 0, 0, 0, 8, 9, 0, 0, 0, 0, 0, 0, 0, 6, 0, 0, 10, 0, 0, 7, 0, 0, 0, 0, 0, 0
      | 0, 0, 0, 0, 0, 7, 0, 0, 0, 0, 0, 0, 0, 5, 0, 9, 0, 0, 0, 0, 0, 0, 0, 0, 0, 8, 0, 9, 0, 0
      | 9, 0, 0, 0, 0, 0, 0, 0, 0, 0, 6, 0, 2, 0, 0, 0, 0, 0, 0, 0, 0, 8, 5, 0, 0, 0, 0, 0, 5, 1
      | 0, 4, 7, 10, 1, 0, 10, 8, 0, 0, 0, 5, 0, 0, 10, 0, 10, 0, 3, 4, 0, 0, 0, 0, 2, 0, 4, 0, 0, 0 |];
suc = [ { 2 }, 
        { 1 }, 
        { 4 }, 
        { 3 }, 
        { 6 }, 
        { 5 }, 
        { 8 }, 
        { 7 }, 
        { 10 }, 
        { 9 }, 
        { 12 }, 
        { 11 }, 
        { 14 }, 
        { 13 }, 
        { 16 }, 
        { 15 }, 
        { 18 }, 
        { 17 }, 
        { 20 }, 
        { 19 }, 
        { 22 }, 
        { 21 }, 
        { 24 }, 
        { 23 }, 
        { 26 }, 
        { 25 }, 
        { 28 }, 
        { 27 }, 
        { 30 }, 
        { 29 }]; 
